##TITLE=Arginine
##JCAMP-DX=4.24
##DATA TYPE=MASS SPECTRUM
##ORIGIN=Chemical Concepts
##OWNER=NIST Mass Spectrometry Data Center
Collection (C) 2014 copyright by the U.S. Secretary of Commerce
on behalf of the United States of America. All rights reserved.
##CAS REGISTRY NO=74-79-3
##$NIST MASS SPEC NO=154822
##MOLFORM=C6 H14 N4 O2
##MW=174
##$NIST SOURCE=MSDC
##XUNITS=M/Z
##YUNITS=RELATIVE INTENSITY
##XFACTOR=1
##YFACTOR=1
##FIRSTX=26
##LASTX=157
##FIRSTY=408
##MAXX=157
##MINX=26
##MAXY=9999
##MINY=26
##NPOINTS=99
##PEAK TABLE=(XY..XY)
26,408 27,1219 28,5614 29,1817
30,6650 31,481 36,26 37,73
38,183 39,1132 40,1081 41,2696
42,3013 43,8869 44,1151 45,207
46,48 49,26 50,68 51,116
52,205 53,255 54,675 55,699
56,9353 57,1644 58,3404 59,1636
60,329 61,28 63,31 64,40
65,28 66,115 67,166 68,1642
69,9999 70,3635 71,246 72,73
73,29 74,46 75,132 77,29
78,110 79,34 80,74 81,174
82,282 83,432 84,265 85,796
86,572 87,75 88,27 91,30
92,28 93,70 94,56 95,298
96,143 97,364 98,420 99,322
100,129 101,31 103,47 105,29
106,28 107,27 108,67 109,359
110,1172 111,427 112,262 113,133
114,222 115,77 118,28 119,30
120,55 121,29 122,67 123,131
124,48 125,66 126,69 127,27
128,30 133,29 134,52 135,144
136,129 137,1160 138,1284 139,262
140,51 156,146 157,29
##END=
