##TITLE=Camphor
##JCAMP-DX=4.24
##DATA TYPE=MASS SPECTRUM
##ORIGIN=Chemical Concepts
##OWNER=NIST Mass Spectrometry Data Center
Collection (C) 2014 copyright by the U.S. Secretary of Commerce
on behalf of the United States of America. All rights reserved.
##CAS REGISTRY NO=76-22-2
##$NIST MASS SPEC NO=151971
##MOLFORM=C10 H16 O
##MW=152
##$NIST SOURCE=MSDC
##XUNITS=M/Z
##YUNITS=RELATIVE INTENSITY
##XFACTOR=1
##YFACTOR=1
##FIRSTX=26
##LASTX=154
##FIRSTY=343
##MAXX=154
##MINX=26
##MAXY=9999
##MINY=12
##NPOINTS=74
##PEAK TABLE=(XY..XY)
26,343 27,3486 28,375 29,1718
30,44 31,13 37,63 38,200
39,3350 40,698 41,7948 42,604
43,990 44,51 45,30 49,16
50,234 51,605 52,299 53,1546
54,402 55,3769 56,249 57,149
59,21 61,13 62,50 63,159
64,45 65,438 66,211 67,2188
68,1633 69,3862 70,283 71,40
74,20 75,21 77,650 78,159
79,639 80,1430 81,7392 82,1310
83,3310 84,276 89,15 91,446
92,77 93,915 94,183 95,9999
96,766 97,518 98,39 103,16
105,56 106,15 107,129 108,3881
109,2822 110,1445 111,149 119,66
121,36 123,98 124,120 136,12
137,350 138,29 139,18 152,2726
153,324 154,22
##END=
