##TITLE=L-Lactic acid
##JCAMP-DX=4.24
##DATA TYPE=MASS SPECTRUM
##ORIGIN=Chemical Concepts
##OWNER=NIST Mass Spectrometry Data Center
Collection (C) 2014 copyright by the U.S. Secretary of Commerce
on behalf of the United States of America. All rights reserved.
##CAS REGISTRY NO=79-33-4
##$NIST MASS SPEC NO=162530
##MOLFORM=C3 H6 O3
##MW=90
##$NIST SOURCE=MSDC
##XUNITS=M/Z
##YUNITS=RELATIVE INTENSITY
##XFACTOR=1
##YFACTOR=1
##FIRSTX=24
##LASTX=91
##FIRSTY=16
##MAXX=91
##MINX=24
##MAXY=9999
##MINY=2
##NPOINTS=43
##PEAK TABLE=(XY..XY)
24,16 25,79 26,474 27,2030
28,161 29,3024 30,212 31,75
33,2 36,3 37,9 38,7
39,9 40,58 41,63 42,292
43,1358 44,171 45,9999 46,264
47,84 52,2 53,31 54,7
55,76 56,13 57,15 58,23
59,12 60,13 61,3 63,13
67,5 68,2 69,16 70,7
71,9 72,5 73,16 75,79
76,3 90,30 91,9
##END=
