##TITLE=DL-Leucine
##JCAMP-DX=4.24
##DATA TYPE=MASS SPECTRUM
##ORIGIN=Chemical Concepts
##OWNER=NIST Mass Spectrometry Data Center
Collection (C) 2014 copyright by the U.S. Secretary of Commerce
on behalf of the United States of America. All rights reserved.
##CAS REGISTRY NO=328-39-2
##$NIST MASS SPEC NO=221048
##MOLFORM=C6 H13 N O2
##MW=131
##$NIST SOURCE=MSDC
##XUNITS=M/Z
##YUNITS=RELATIVE INTENSITY
##XFACTOR=1
##YFACTOR=1
##FIRSTX=26
##LASTX=114
##FIRSTY=60
##MAXX=114
##MINX=26
##MAXY=9999
##MINY=30
##NPOINTS=45
##PEAK TABLE=(XY..XY)
26,60 27,1050 28,1380 29,810
30,8119 31,130 34,30 35,30
38,50 39,710 40,110 41,1820
42,880 43,2720 44,7489 45,210
46,460 50,30 51,60 52,40
53,110 54,100 55,130 56,230
57,670 58,30 59,80 65,30
67,60 68,80 69,200 70,360
71,100 73,100 74,3630 75,570
76,40 81,30 84,50 86,9999
87,580 88,80 89,30 99,70
114,30
##END=
