##TITLE=Benzeneethanol, .beta.-methyl-
##JCAMP-DX=4.24
##DATA TYPE=MASS SPECTRUM
##ORIGIN=Chemical Concepts
##OWNER=NIST Mass Spectrometry Data Center
Collection (C) 2014 copyright by the U.S. Secretary of Commerce
on behalf of the United States of America. All rights reserved.
##CAS REGISTRY NO=1123-85-9
##$NIST MASS SPEC NO=189230
##MOLFORM=C9 H12 O
##MW=136
##$NIST SOURCE=MSDC
##XUNITS=M/Z
##YUNITS=RELATIVE INTENSITY
##XFACTOR=1
##YFACTOR=1
##FIRSTX=27
##LASTX=137
##FIRSTY=191
##MAXX=137
##MINX=27
##MAXY=9999
##MINY=22
##NPOINTS=41
##PEAK TABLE=(XY..XY)
27,191 29,62 31,96 38,26
39,232 40,24 41,60 43,94
50,146 51,463 52,90 53,70
57,31 62,53 63,150 64,28
65,154 66,25 74,67 75,57
76,67 77,1220 78,429 79,1157
80,90 89,78 90,24 91,998
92,80 102,85 103,897 104,433
105,9999 106,2511 107,171 115,72
117,59 118,51 120,22 136,1124
137,120
##END=
