##TITLE=Taurine
##JCAMP-DX=4.24
##DATA TYPE=MASS SPECTRUM
##ORIGIN=Chemical Concepts
##OWNER=NIST Mass Spectrometry Data Center
Collection (C) 2014 copyright by the U.S. Secretary of Commerce
on behalf of the United States of America. All rights reserved.
##CAS REGISTRY NO=107-35-7
##$NIST MASS SPEC NO=157794
##MOLFORM=C2 H7 N O3 S
##MW=125
##$NIST SOURCE=MSDC
##XUNITS=M/Z
##YUNITS=RELATIVE INTENSITY
##XFACTOR=1
##YFACTOR=1
##FIRSTX=26
##LASTX=96
##FIRSTY=1928
##MAXX=96
##MINX=26
##MAXY=9999
##MINY=10
##NPOINTS=63
##PEAK TABLE=(XY..XY)
26,1928 27,6970 28,187 29,472
30,9999 31,259 33,177 34,244
35,30 36,64 37,43 38,116
39,429 40,468 41,986 42,4225
43,5549 44,2016 45,1584 46,81
47,35 48,3370 49,183 50,191
51,96 52,64 53,65 54,130
55,26 56,237 57,91 58,107
59,40 60,154 63,51 64,3370
65,1888 66,245 67,83 68,53
69,71 70,50 71,73 74,36
75,40 76,23 77,34 78,79
79,61 80,43 81,210 82,165
83,10 84,34 85,16 86,26
87,17 91,72 92,50 93,76
94,41 95,29 96,32
##END=
