##TITLE=Acetophenone
##JCAMP-DX=4.24
##DATA TYPE=MASS SPECTRUM
##ORIGIN=Chemical Concepts
##OWNER=NIST Mass Spectrometry Data Center
Collection (C) 2014 copyright by the U.S. Secretary of Commerce
on behalf of the United States of America. All rights reserved.
##CAS REGISTRY NO=98-86-2
##$NIST MASS SPEC NO=223435
##MOLFORM=C8 H8 O
##MW=120
##$NIST SOURCE=MSDC
##XUNITS=M/Z
##YUNITS=RELATIVE INTENSITY
##XFACTOR=1
##YFACTOR=1
##FIRSTX=26
##LASTX=122
##FIRSTY=99
##MAXX=122
##MINX=26
##MAXY=9999
##MINY=10
##NPOINTS=51
##PEAK TABLE=(XY..XY)
26,99 27,369 28,80 29,40
36,10 37,199 38,459 39,739
40,40 41,70 42,199 43,1799
44,50 45,20 48,10 49,169
50,1689 51,3789 52,409 53,149
60,20 61,129 62,229 63,319
64,60 65,239 66,20 72,10
73,119 74,539 75,289 76,459
77,8680 78,839 79,30 85,20
86,30 87,20 89,99 90,20
91,179 92,10 98,10 102,10
103,20 105,9999 106,729 107,40
120,3049 121,249 122,10
##END=
