##TITLE=Dodecanoic acid
##JCAMP-DX=4.24
##DATA TYPE=MASS SPECTRUM
##ORIGIN=Chemical Concepts
##OWNER=NIST Mass Spectrometry Data Center
Collection (C) 2014 copyright by the U.S. Secretary of Commerce
on behalf of the United States of America. All rights reserved.
##CAS REGISTRY NO=143-07-7
##$NIST MASS SPEC NO=221043
##MOLFORM=C12 H24 O2
##MW=200
##$NIST SOURCE=MSDC
##XUNITS=M/Z
##YUNITS=RELATIVE INTENSITY
##XFACTOR=1
##YFACTOR=1
##FIRSTX=26
##LASTX=202
##FIRSTY=190
##MAXX=202
##MINX=26
##MAXY=9999
##MINY=30
##NPOINTS=94
##PEAK TABLE=(XY..XY)
26,190 27,1740 28,429 29,3200
31,160 38,30 39,1040 40,220
41,5679 42,1240 43,6939 44,220
45,720 50,40 51,50 52,40
53,330 54,380 55,4630 56,1280
57,5509 58,260 59,380 60,9879
61,1860 62,80 65,60 66,50
67,430 68,390 69,2490 70,890
71,3200 72,180 73,9999 74,910
75,70 77,40 78,30 79,120
80,50 81,290 82,380 83,1410
84,870 85,2950 86,210 87,1700
88,300 89,40 93,80 94,50
95,160 96,340 97,1070 98,860
99,690 100,70 101,1360 102,270
103,30 107,50 109,80 110,180
111,540 112,300 115,1640 116,190
121,70 123,30 125,90 126,40
129,3230 130,290 131,30 135,40
138,420 139,90 140,480 141,250
142,30 143,780 144,90 157,2280
158,240 163,30 164,80 171,770
172,110 183,70 185,40 200,2350
201,340 202,30
##END=
