##TITLE=n-Hexadecanoic acid
##JCAMP-DX=4.24
##DATA TYPE=MASS SPECTRUM
##ORIGIN=Chemical Concepts
##OWNER=NIST Mass Spectrometry Data Center
Collection (C) 2014 copyright by the U.S. Secretary of Commerce
on behalf of the United States of America. All rights reserved.
##CAS REGISTRY NO=57-10-3
##$NIST MASS SPEC NO=151973
##MOLFORM=C16 H32 O2
##MW=256
##$NIST SOURCE=MSDC
##XUNITS=M/Z
##YUNITS=RELATIVE INTENSITY
##XFACTOR=1
##YFACTOR=1
##FIRSTX=25
##LASTX=258
##FIRSTY=86
##MAXX=258
##MINX=25
##MAXY=9999
##MINY=11
##NPOINTS=140
##PEAK TABLE=(XY..XY)
25,86 27,1569 29,4140 30,133
31,269 33,17 36,23 37,13
38,32 39,947 40,174 41,7492
42,1677 43,9999 44,166 45,1329
46,54 47,30 50,21 51,40
52,44 53,400 54,526 55,6167
56,1471 57,6346 58,306 59,437
60,8381 61,2187 62,103 63,52
65,72 66,48 67,600 68,485
69,3104 70,949 71,2851 72,170
73,9052 74,732 75,69 76,20
77,48 78,37 79,127 80,83
81,448 82,457 83,1817 84,849
85,1539 86,128 87,1167 88,130
89,96 90,12 91,34 92,23
93,68 94,38 95,249 96,284
97,1217 98,801 99,517 100,66
101,599 102,166 103,28 105,14
107,91 108,40 109,114 110,126
111,507 112,245 113,304 114,64
115,809 116,254 117,28 119,22
120,11 121,69 122,22 123,42
124,62 125,220 126,103 127,181
128,42 129,2103 130,214 131,20
133,43 134,26 135,44 137,50
138,58 139,112 140,61 141,132
142,20 143,190 144,68 149,36
152,39 153,68 154,42 155,72
157,471 158,91 163,11 166,45
167,31 168,48 171,432 172,65
177,26 178,24 185,352 186,53
194,155 195,23 196,105 197,80
199,137 200,20 201,19 213,898
214,144 220,33 227,178 228,39
239,35 256,1587 257,288 258,34
##END=
