15
toluene
C   2.218352  -0.020772  -0.111824
C   0.721936  -0.008824  -0.011635
C  -0.004066  -1.203531  -0.093256
C  -1.398603  -1.189100  -0.031602
C  -2.079127   0.019740   0.101552
C  -1.365986   1.215165   0.168829
C   0.028568   1.202030   0.107284
H   2.523869   0.062423  -1.159321
H   2.630398  -0.945815   0.304990
H   2.654233   0.811043   0.451479
H   0.513171  -2.153702  -0.204649
H  -1.953806  -2.121447  -0.090425
H  -3.164667   0.030544   0.148602
H  -1.895737   2.159000   0.266413
H   0.571464   2.143246   0.153564
